p cnf 65 735
4 7 11 16 22 29 37 46 56 67 79 92 106 0
8 12 17 23 30 38 47 57 68 80 93 107 122 0
13 18 24 31 39 48 58 69 81 94 108 123 139 0
19 25 32 40 49 59 70 82 95 109 124 140 157 0
26 33 41 50 60 71 83 96 110 125 141 158 176 0
-4 -8 0
-7 -12 0
-11 -17 0
-16 -23 0
-22 -30 0
-29 -38 0
-37 -47 0
-46 -57 0
-56 -68 0
-67 -80 0
-79 -93 0
-92 -107 0
-106 -122 0
-4 -13 0
-7 -18 0
-11 -24 0
-16 -31 0
-22 -39 0
-29 -48 0
-37 -58 0
-46 -69 0
-56 -81 0
-67 -94 0
-79 -108 0
-92 -123 0
-106 -139 0
-4 -19 0
-7 -25 0
-11 -32 0
-16 -40 0
-22 -49 0
-29 -59 0
-37 -70 0
-46 -82 0
-56 -95 0
-67 -109 0
-79 -124 0
-92 -140 0
-106 -157 0
-4 -26 0
-7 -33 0
-11 -41 0
-16 -50 0
-22 -60 0
-29 -71 0
-37 -83 0
-46 -96 0
-56 -110 0
-67 -125 0
-79 -141 0
-92 -158 0
-106 -176 0
-8 -13 0
-12 -18 0
-17 -24 0
-23 -31 0
-30 -39 0
-38 -48 0
-47 -58 0
-57 -69 0
-68 -81 0
-80 -94 0
-93 -108 0
-107 -123 0
-122 -139 0
-8 -19 0
-12 -25 0
-17 -32 0
-23 -40 0
-30 -49 0
-38 -59 0
-47 -70 0
-57 -82 0
-68 -95 0
-80 -109 0
-93 -124 0
-107 -140 0
-122 -157 0
-8 -26 0
-12 -33 0
-17 -41 0
-23 -50 0
-30 -60 0
-38 -71 0
-47 -83 0
-57 -96 0
-68 -110 0
-80 -125 0
-93 -141 0
-107 -158 0
-122 -176 0
-13 -19 0
-18 -25 0
-24 -32 0
-31 -40 0
-39 -49 0
-48 -59 0
-58 -70 0
-69 -82 0
-81 -95 0
-94 -109 0
-108 -124 0
-123 -140 0
-139 -157 0
-13 -26 0
-18 -33 0
-24 -41 0
-31 -50 0
-39 -60 0
-48 -71 0
-58 -83 0
-69 -96 0
-81 -110 0
-94 -125 0
-108 -141 0
-123 -158 0
-139 -176 0
-19 -26 0
-25 -33 0
-32 -41 0
-40 -50 0
-49 -60 0
-59 -71 0
-70 -83 0
-82 -96 0
-95 -110 0
-109 -125 0
-124 -141 0
-140 -158 0
-157 -176 0
-4 -17 0
-4 -38 0
-4 -68 0
-7 -30 0
-7 -47 0
-7 -80 0
-11 -23 0
-11 -30 0
-11 -57 0
-11 -107 0
-16 -38 0
-16 -93 0
-16 -122 0
-22 -38 0
-22 -57 0
-22 -93 0
-29 -47 0
-29 -57 0
-29 -80 0
-29 -107 0
-37 -57 0
-37 -80 0
-37 -93 0
-37 -107 0
-46 -68 0
-46 -93 0
-56 -80 0
-67 -122 0
-79 -122 0
-92 -122 0
-4 -24 0
-4 -48 0
-4 -81 0
-7 -39 0
-7 -58 0
-7 -94 0
-11 -31 0
-11 -39 0
-11 -69 0
-11 -123 0
-16 -48 0
-16 -108 0
-16 -139 0
-22 -48 0
-22 -69 0
-22 -108 0
-29 -58 0
-29 -69 0
-29 -94 0
-29 -123 0
-37 -69 0
-37 -94 0
-37 -108 0
-37 -123 0
-46 -81 0
-46 -108 0
-56 -94 0
-67 -139 0
-79 -139 0
-92 -139 0
-4 -32 0
-4 -59 0
-4 -95 0
-7 -49 0
-7 -70 0
-7 -109 0
-11 -40 0
-11 -49 0
-11 -82 0
-11 -140 0
-16 -59 0
-16 -124 0
-16 -157 0
-22 -59 0
-22 -82 0
-22 -124 0
-29 -70 0
-29 -82 0
-29 -109 0
-29 -140 0
-37 -82 0
-37 -109 0
-37 -124 0
-37 -140 0
-46 -95 0
-46 -124 0
-56 -109 0
-67 -157 0
-79 -157 0
-92 -157 0
-4 -41 0
-4 -71 0
-4 -110 0
-7 -60 0
-7 -83 0
-7 -125 0
-11 -50 0
-11 -60 0
-11 -96 0
-11 -158 0
-16 -71 0
-16 -141 0
-16 -176 0
-22 -71 0
-22 -96 0
-22 -141 0
-29 -83 0
-29 -96 0
-29 -125 0
-29 -158 0
-37 -96 0
-37 -125 0
-37 -141 0
-37 -158 0
-46 -110 0
-46 -141 0
-56 -125 0
-67 -176 0
-79 -176 0
-92 -176 0
-8 -11 0
-8 -29 0
-8 -56 0
-12 -22 0
-12 -37 0
-12 -67 0
-17 -16 0
-17 -22 0
-17 -46 0
-17 -92 0
-23 -29 0
-23 -79 0
-23 -106 0
-30 -29 0
-30 -46 0
-30 -79 0
-38 -37 0
-38 -46 0
-38 -67 0
-38 -92 0
-47 -46 0
-47 -67 0
-47 -79 0
-47 -92 0
-57 -56 0
-57 -79 0
-68 -67 0
-80 -106 0
-93 -106 0
-107 -106 0
-8 -24 0
-8 -48 0
-8 -81 0
-12 -39 0
-12 -58 0
-12 -94 0
-17 -31 0
-17 -39 0
-17 -69 0
-17 -123 0
-23 -48 0
-23 -108 0
-23 -139 0
-30 -48 0
-30 -69 0
-30 -108 0
-38 -58 0
-38 -69 0
-38 -94 0
-38 -123 0
-47 -69 0
-47 -94 0
-47 -108 0
-47 -123 0
-57 -81 0
-57 -108 0
-68 -94 0
-80 -139 0
-93 -139 0
-107 -139 0
-8 -32 0
-8 -59 0
-8 -95 0
-12 -49 0
-12 -70 0
-12 -109 0
-17 -40 0
-17 -49 0
-17 -82 0
-17 -140 0
-23 -59 0
-23 -124 0
-23 -157 0
-30 -59 0
-30 -82 0
-30 -124 0
-38 -70 0
-38 -82 0
-38 -109 0
-38 -140 0
-47 -82 0
-47 -109 0
-47 -124 0
-47 -140 0
-57 -95 0
-57 -124 0
-68 -109 0
-80 -157 0
-93 -157 0
-107 -157 0
-8 -41 0
-8 -71 0
-8 -110 0
-12 -60 0
-12 -83 0
-12 -125 0
-17 -50 0
-17 -60 0
-17 -96 0
-17 -158 0
-23 -71 0
-23 -141 0
-23 -176 0
-30 -71 0
-30 -96 0
-30 -141 0
-38 -83 0
-38 -96 0
-38 -125 0
-38 -158 0
-47 -96 0
-47 -125 0
-47 -141 0
-47 -158 0
-57 -110 0
-57 -141 0
-68 -125 0
-80 -176 0
-93 -176 0
-107 -176 0
-13 -11 0
-13 -29 0
-13 -56 0
-18 -22 0
-18 -37 0
-18 -67 0
-24 -16 0
-24 -22 0
-24 -46 0
-24 -92 0
-31 -29 0
-31 -79 0
-31 -106 0
-39 -29 0
-39 -46 0
-39 -79 0
-48 -37 0
-48 -46 0
-48 -67 0
-48 -92 0
-58 -46 0
-58 -67 0
-58 -79 0
-58 -92 0
-69 -56 0
-69 -79 0
-81 -67 0
-94 -106 0
-108 -106 0
-123 -106 0
-13 -17 0
-13 -38 0
-13 -68 0
-18 -30 0
-18 -47 0
-18 -80 0
-24 -23 0
-24 -30 0
-24 -57 0
-24 -107 0
-31 -38 0
-31 -93 0
-31 -122 0
-39 -38 0
-39 -57 0
-39 -93 0
-48 -47 0
-48 -57 0
-48 -80 0
-48 -107 0
-58 -57 0
-58 -80 0
-58 -93 0
-58 -107 0
-69 -68 0
-69 -93 0
-81 -80 0
-94 -122 0
-108 -122 0
-123 -122 0
-13 -32 0
-13 -59 0
-13 -95 0
-18 -49 0
-18 -70 0
-18 -109 0
-24 -40 0
-24 -49 0
-24 -82 0
-24 -140 0
-31 -59 0
-31 -124 0
-31 -157 0
-39 -59 0
-39 -82 0
-39 -124 0
-48 -70 0
-48 -82 0
-48 -109 0
-48 -140 0
-58 -82 0
-58 -109 0
-58 -124 0
-58 -140 0
-69 -95 0
-69 -124 0
-81 -109 0
-94 -157 0
-108 -157 0
-123 -157 0
-13 -41 0
-13 -71 0
-13 -110 0
-18 -60 0
-18 -83 0
-18 -125 0
-24 -50 0
-24 -60 0
-24 -96 0
-24 -158 0
-31 -71 0
-31 -141 0
-31 -176 0
-39 -71 0
-39 -96 0
-39 -141 0
-48 -83 0
-48 -96 0
-48 -125 0
-48 -158 0
-58 -96 0
-58 -125 0
-58 -141 0
-58 -158 0
-69 -110 0
-69 -141 0
-81 -125 0
-94 -176 0
-108 -176 0
-123 -176 0
-19 -11 0
-19 -29 0
-19 -56 0
-25 -22 0
-25 -37 0
-25 -67 0
-32 -16 0
-32 -22 0
-32 -46 0
-32 -92 0
-40 -29 0
-40 -79 0
-40 -106 0
-49 -29 0
-49 -46 0
-49 -79 0
-59 -37 0
-59 -46 0
-59 -67 0
-59 -92 0
-70 -46 0
-70 -67 0
-70 -79 0
-70 -92 0
-82 -56 0
-82 -79 0
-95 -67 0
-109 -106 0
-124 -106 0
-140 -106 0
-19 -17 0
-19 -38 0
-19 -68 0
-25 -30 0
-25 -47 0
-25 -80 0
-32 -23 0
-32 -30 0
-32 -57 0
-32 -107 0
-40 -38 0
-40 -93 0
-40 -122 0
-49 -38 0
-49 -57 0
-49 -93 0
-59 -47 0
-59 -57 0
-59 -80 0
-59 -107 0
-70 -57 0
-70 -80 0
-70 -93 0
-70 -107 0
-82 -68 0
-82 -93 0
-95 -80 0
-109 -122 0
-124 -122 0
-140 -122 0
-19 -24 0
-19 -48 0
-19 -81 0
-25 -39 0
-25 -58 0
-25 -94 0
-32 -31 0
-32 -39 0
-32 -69 0
-32 -123 0
-40 -48 0
-40 -108 0
-40 -139 0
-49 -48 0
-49 -69 0
-49 -108 0
-59 -58 0
-59 -69 0
-59 -94 0
-59 -123 0
-70 -69 0
-70 -94 0
-70 -108 0
-70 -123 0
-82 -81 0
-82 -108 0
-95 -94 0
-109 -139 0
-124 -139 0
-140 -139 0
-19 -41 0
-19 -71 0
-19 -110 0
-25 -60 0
-25 -83 0
-25 -125 0
-32 -50 0
-32 -60 0
-32 -96 0
-32 -158 0
-40 -71 0
-40 -141 0
-40 -176 0
-49 -71 0
-49 -96 0
-49 -141 0
-59 -83 0
-59 -96 0
-59 -125 0
-59 -158 0
-70 -96 0
-70 -125 0
-70 -141 0
-70 -158 0
-82 -110 0
-82 -141 0
-95 -125 0
-109 -176 0
-124 -176 0
-140 -176 0
-26 -11 0
-26 -29 0
-26 -56 0
-33 -22 0
-33 -37 0
-33 -67 0
-41 -16 0
-41 -22 0
-41 -46 0
-41 -92 0
-50 -29 0
-50 -79 0
-50 -106 0
-60 -29 0
-60 -46 0
-60 -79 0
-71 -37 0
-71 -46 0
-71 -67 0
-71 -92 0
-83 -46 0
-83 -67 0
-83 -79 0
-83 -92 0
-96 -56 0
-96 -79 0
-110 -67 0
-125 -106 0
-141 -106 0
-158 -106 0
-26 -17 0
-26 -38 0
-26 -68 0
-33 -30 0
-33 -47 0
-33 -80 0
-41 -23 0
-41 -30 0
-41 -57 0
-41 -107 0
-50 -38 0
-50 -93 0
-50 -122 0
-60 -38 0
-60 -57 0
-60 -93 0
-71 -47 0
-71 -57 0
-71 -80 0
-71 -107 0
-83 -57 0
-83 -80 0
-83 -93 0
-83 -107 0
-96 -68 0
-96 -93 0
-110 -80 0
-125 -122 0
-141 -122 0
-158 -122 0
-26 -24 0
-26 -48 0
-26 -81 0
-33 -39 0
-33 -58 0
-33 -94 0
-41 -31 0
-41 -39 0
-41 -69 0
-41 -123 0
-50 -48 0
-50 -108 0
-50 -139 0
-60 -48 0
-60 -69 0
-60 -108 0
-71 -58 0
-71 -69 0
-71 -94 0
-71 -123 0
-83 -69 0
-83 -94 0
-83 -108 0
-83 -123 0
-96 -81 0
-96 -108 0
-110 -94 0
-125 -139 0
-141 -139 0
-158 -139 0
-26 -32 0
-26 -59 0
-26 -95 0
-33 -49 0
-33 -70 0
-33 -109 0
-41 -40 0
-41 -49 0
-41 -82 0
-41 -140 0
-50 -59 0
-50 -124 0
-50 -157 0
-60 -59 0
-60 -82 0
-60 -124 0
-71 -70 0
-71 -82 0
-71 -109 0
-71 -140 0
-83 -82 0
-83 -109 0
-83 -124 0
-83 -140 0
-96 -95 0
-96 -124 0
-110 -109 0
-125 -157 0
-141 -157 0
-158 -157 0
